c File: instances/12_0.25_3.col
c
c Description: Random graph of size 12 vertices and P(0.25) of edges between any two vertices.
p col 12 66
e 1 5
e 1 6
e 1 7
e 1 12
e 2 3
e 2 6
e 2 8
e 2 10
e 2 11
e 2 12
e 3 5
e 3 6
e 3 7
e 3 8
e 3 11
e 4 5
e 4 8
e 5 6
e 5 7
e 5 8
e 5 10
e 5 11
e 6 7
e 6 10
e 6 11
e 6 12
e 7 9
e 10 11
e 11 12